; PUSH 0x00 DUP1 DUP3 GT ISZERO => PUSH 0x00 DUP2 ISZERO
(set-option :produce-proofs true)
; 
(set-info :status unknown)
(declare-fun storage_t ((_ BitVec 256) Int (_ BitVec 256)) (_ BitVec 256))
(declare-fun storage_s ((_ BitVec 256) Int (_ BitVec 256)) (_ BitVec 256))
(declare-fun exc_halt_t (Int) Bool)
(declare-fun exc_halt_s (Int) Bool)
(declare-fun stack_t ((_ BitVec 256) Int (_ BitVec 6)) (_ BitVec 256))
(declare-fun stack_s ((_ BitVec 256) Int (_ BitVec 6)) (_ BitVec 256))
(declare-fun sc_t (Int) (_ BitVec 6))
(declare-fun sc_s (Int) (_ BitVec 6))
(declare-fun used_gas_t ((_ BitVec 256) Int) Int)
(declare-fun used_gas_s ((_ BitVec 256) Int) Int)
(assert
 (exists ((x_0 (_ BitVec 256)) )(let (($x8867 (forall ((w (_ BitVec 256)) )(let ((?x964 (storage_t x_0 3 w)))
 (let ((?x6166 (storage_s x_0 5 w)))
 (= ?x6166 ?x964))))
 ))
 (let (($x3614 (exc_halt_t 3)))
 (let (($x11317 (exc_halt_s 5)))
 (let (($x3494 (= $x11317 $x3614)))
 (let (($x8210 (forall ((n (_ BitVec 6)) )(let ((?x6832 (stack_t x_0 3 n)))
 (let ((?x6881 (stack_s x_0 5 n)))
 (let (($x9198 (= ?x6881 ?x6832)))
 (let ((?x11304 (sc_t 3)))
 (let (($x6674 (bvsle ?x11304 n)))
 (or $x6674 $x9198)))))))
 ))
 (let ((?x11304 (sc_t 3)))
 (let ((?x4319 (sc_s 5)))
 (let (($x1839 (= ?x4319 ?x11304)))
 (let ((?x1734 (used_gas_t x_0 0)))
 (let ((?x4676 (used_gas_s x_0 0)))
 (let (($x9385 (= ?x4676 ?x1734)))
 (let (($x6049 (forall ((w (_ BitVec 256)) )(let ((?x11395 (storage_t x_0 0 w)))
 (let ((?x8247 (storage_s x_0 0 w)))
 (= ?x8247 ?x11395))))
 ))
 (let (($x56 (exc_halt_t 0)))
 (let (($x57 (exc_halt_s 0)))
 (let (($x58 (= $x57 $x56)))
 (let (($x8215 (forall ((n (_ BitVec 6)) )(let ((?x63 (sc_t 0)))
 (let (($x5223 (bvsle ?x63 n)))
 (let ((?x2706 (stack_t x_0 0 n)))
 (let ((?x4503 (stack_s x_0 0 n)))
 (let (($x581 (= ?x4503 ?x2706)))
 (or $x581 $x5223)))))))
 ))
 (let ((?x63 (sc_t 0)))
 (let ((?x72 (sc_s 0)))
 (let (($x73 (= ?x72 ?x63)))
 (let (($x9316 (= $x3614 (or (exc_halt_t 2) (not (bvsle (_ bv0 6) (bvadd (_ bv63 6) (sc_t 2))))))))
 (let (($x11186 (forall ((w (_ BitVec 256)) )(let ((?x7884 (storage_t x_0 2 w)))
 (let ((?x964 (storage_t x_0 3 w)))
 (= ?x964 ?x7884))))
 ))
 (let (($x11901 (forall ((n (_ BitVec 6)) )(let ((?x2714 (sc_t 2)))
 (let ((?x4909 (bvadd (_ bv63 6) ?x2714)))
 (let (($x10496 (bvsle ?x4909 n)))
 (or $x10496 (= (stack_t x_0 3 n) (stack_t x_0 2 n)))))))
 ))
 (let ((?x2714 (sc_t 2)))
 (let (($x5926 (= ?x11304 ?x2714)))
 (let (($x6377 (= (stack_t x_0 3 (bvadd (_ bv63 6) ?x11304)) (ite (= (stack_t x_0 2 (bvadd (_ bv63 6) ?x2714)) (_ bv0 256)) (_ bv1 256) (_ bv0 256)))))
 (let (($x8377 (exc_halt_t 1)))
 (let (($x1043 (not (= ((_ extract 6 6) (bvadd (_ bv1 7) (concat (_ bv0 1) (sc_t 1)))) (_ bv0 1)))))
 (let (($x2556 (exc_halt_t 2)))
 (let (($x4277 (= $x2556 (or $x1043 (not (bvsle (_ bv0 6) (bvadd (_ bv62 6) (sc_t 1)))) $x8377))))
 (let (($x3514 (forall ((w (_ BitVec 256)) )(let ((?x1378 (storage_t x_0 1 w)))
 (let ((?x7884 (storage_t x_0 2 w)))
 (= ?x7884 ?x1378))))
 ))
 (let (($x3425 (forall ((n (_ BitVec 6)) )(let ((?x7154 (sc_t 1)))
 (let ((?x723 (bvadd (_ bv62 6) ?x7154)))
 (let (($x1462 (bvsle ?x723 n)))
 (or $x1462 (= (stack_t x_0 2 n) (stack_t x_0 1 n)))))))
 ))
 (let (($x1803 (= ?x2714 (bvadd (_ bv1 6) (sc_t 1)))))
 (let (($x104 (= (stack_t x_0 2 (bvadd (_ bv63 6) (sc_t 1))) (stack_t x_0 1 (bvadd (_ bv63 6) (sc_t 1))))))
 (let ((?x7154 (sc_t 1)))
 (let ((?x723 (bvadd (_ bv62 6) ?x7154)))
 (let ((?x9414 (stack_t x_0 1 ?x723)))
 (let (($x6851 (= $x8377 (or $x56 (not (= ((_ extract 6 6) (bvadd (_ bv1 7) (concat (_ bv0 1) ?x63))) (_ bv0 1)))))))
 (let (($x5997 (forall ((w (_ BitVec 256)) )(let ((?x11395 (storage_t x_0 0 w)))
 (let ((?x1378 (storage_t x_0 1 w)))
 (= ?x1378 ?x11395))))
 ))
 (let (($x5310 (forall ((n (_ BitVec 6)) )(let ((?x63 (sc_t 0)))
 (let (($x5223 (bvsle ?x63 n)))
 (or $x5223 (= (stack_t x_0 1 n) (stack_t x_0 0 n))))))
 ))
 (let (($x6360 (= ?x7154 (bvadd (_ bv1 6) ?x63))))
 (let (($x3974 (= $x11317 (or (exc_halt_s 4) (not (bvsle (_ bv0 6) (bvadd (_ bv63 6) (sc_s 4))))))))
 (let (($x3160 (forall ((w (_ BitVec 256)) )(let ((?x1474 (storage_s x_0 4 w)))
 (let ((?x6166 (storage_s x_0 5 w)))
 (= ?x6166 ?x1474))))
 ))
 (let (($x9606 (forall ((n (_ BitVec 6)) )(or (bvsle (bvadd (_ bv63 6) (sc_s 4)) n) (= (stack_s x_0 5 n) (stack_s x_0 4 n))))
 ))
 (let ((?x4305 (sc_s 4)))
 (let (($x1176 (= ?x4319 ?x4305)))
 (let (($x10728 (= (stack_s x_0 5 (bvadd (_ bv63 6) ?x4319)) (ite (= (stack_s x_0 4 (bvadd (_ bv63 6) ?x4305)) (_ bv0 256)) (_ bv1 256) (_ bv0 256)))))
 (let (($x7172 (exc_halt_s 4)))
 (let (($x2827 (= $x7172 (or (exc_halt_s 3) (not (bvsle (_ bv0 6) (bvadd (_ bv62 6) (sc_s 3))))))))
 (let (($x4619 (forall ((w (_ BitVec 256)) )(let ((?x2255 (storage_s x_0 3 w)))
 (let ((?x1474 (storage_s x_0 4 w)))
 (= ?x1474 ?x2255))))
 ))
 (let (($x5525 (forall ((n (_ BitVec 6)) )(let ((?x275 (sc_s 3)))
 (let ((?x8423 (bvadd (_ bv62 6) ?x275)))
 (let (($x11620 (bvsle ?x8423 n)))
 (or (= (stack_s x_0 4 n) (stack_s x_0 3 n)) $x11620)))))
 ))
 (let ((?x275 (sc_s 3)))
 (let ((?x5611 (bvadd (_ bv63 6) ?x275)))
 (let ((?x9547 (stack_s x_0 3 ?x5611)))
 (let ((?x11384 (bvadd (_ bv63 6) ?x4305)))
 (let ((?x3523 (stack_s x_0 4 ?x11384)))
 (let (($x11920 (= ?x3523 (ite (bvule ?x9547 (stack_s x_0 3 (bvadd (_ bv62 6) ?x275))) (_ bv0 256) (_ bv1 256)))))
 (let (($x4983 (not (= ((_ extract 6 6) (bvadd (_ bv1 7) (concat (_ bv0 1) (sc_s 2)))) (_ bv0 1)))))
 (let (($x247 (exc_halt_s 2)))
 (let (($x292 (exc_halt_s 3)))
 (let (($x8044 (forall ((w (_ BitVec 256)) )(let ((?x647 (storage_s x_0 2 w)))
 (let ((?x2255 (storage_s x_0 3 w)))
 (= ?x2255 ?x647))))
 ))
 (let (($x7517 (forall ((n (_ BitVec 6)) )(or (bvsle (bvadd (_ bv61 6) (sc_s 2)) n) (= (stack_s x_0 3 n) (stack_s x_0 2 n))))
 ))
 (let (($x11123 (= ?x275 (bvadd (_ bv1 6) (sc_s 2)))))
 (let ((?x218 (sc_s 2)))
 (let ((?x11690 (bvadd (_ bv63 6) ?x218)))
 (let ((?x2322 (stack_s x_0 2 ?x11690)))
 (let (($x4532 (= (stack_s x_0 3 (bvadd (_ bv62 6) ?x218)) (stack_s x_0 2 (bvadd (_ bv62 6) ?x218)))))
 (let ((?x1889 (bvadd (_ bv61 6) ?x218)))
 (let ((?x7834 (stack_s x_0 2 ?x1889)))
 (let (($x2566 (not (bvsle (_ bv0 6) (bvadd (_ bv63 6) (sc_s 1))))))
 (let (($x189 (exc_halt_s 1)))
 (let (($x7828 (or (not (= ((_ extract 6 6) (bvadd (_ bv1 7) (concat (_ bv0 1) (sc_s 1)))) (_ bv0 1))) $x189 $x2566)))
 (let (($x8297 (= $x247 $x7828)))
 (let (($x2653 (forall ((w (_ BitVec 256)) )(let ((?x6043 (storage_s x_0 1 w)))
 (let ((?x647 (storage_s x_0 2 w)))
 (= ?x647 ?x6043))))
 ))
 (let (($x9299 (forall ((n (_ BitVec 6)) )(let ((?x154 (sc_s 1)))
 (let ((?x1136 (bvadd (_ bv63 6) ?x154)))
 (let (($x5412 (bvsle ?x1136 n)))
 (or (= (stack_s x_0 2 n) (stack_s x_0 1 n)) $x5412)))))
 ))
 (let (($x10700 (= ?x218 (bvadd (_ bv1 6) (sc_s 1)))))
 (let ((?x154 (sc_s 1)))
 (let ((?x1136 (bvadd (_ bv63 6) ?x154)))
 (let ((?x10258 (stack_s x_0 1 ?x1136)))
 (let (($x11129 (= $x189 (or $x57 (not (= ((_ extract 6 6) (bvadd (_ bv1 7) (concat (_ bv0 1) ?x72))) (_ bv0 1)))))))
 (let (($x374 (forall ((w (_ BitVec 256)) )(let ((?x8247 (storage_s x_0 0 w)))
 (let ((?x6043 (storage_s x_0 1 w)))
 (= ?x6043 ?x8247))))
 ))
 (let (($x5699 (forall ((n (_ BitVec 6)) )(let ((?x72 (sc_s 0)))
 (let (($x1744 (bvsle ?x72 n)))
 (or $x1744 (= (stack_s x_0 1 n) (stack_s x_0 0 n))))))
 ))
 (let (($x6960 (= ?x154 (bvadd (_ bv1 6) ?x72))))
 (let (($x3076 (forall ((w (_ BitVec 256)) )(let ((?x8247 (storage_s x_0 0 w)))
 (= ?x8247 (_ bv0 256))))
 ))
 (let (($x6743 (= ?x4676 0)))
 (let (($x4616 (not $x57)))
 (let (($x4179 (= (stack_s x_0 0 (_ bv0 6)) x_0)))
 (let (($x7315 (= ?x72 (_ bv1 6))))
 (and $x7315 $x4179 $x4616 $x6743 $x3076 (= (stack_s x_0 1 ?x72) (_ bv0 256)) (= (used_gas_s x_0 1) (+ 3 ?x4676)) $x6960 $x5699 $x374 $x11129 (= ?x2322 ?x10258) (= (stack_s x_0 2 ?x1136) ?x10258) (= (used_gas_s x_0 2) (+ 3 (used_gas_s x_0 1))) $x10700 $x9299 $x2653 $x8297 (= ?x9547 ?x7834) (= (stack_s x_0 3 ?x1889) ?x7834) $x4532 (= (stack_s x_0 3 ?x11690) ?x2322) (= (used_gas_s x_0 3) (+ 3 (used_gas_s x_0 2))) $x11123 $x7517 $x8044 (= $x292 (or $x247 $x4983 (not (bvsle (_ bv0 6) ?x1889)))) $x11920 (= (used_gas_s x_0 4) (+ 3 (used_gas_s x_0 3))) (= ?x4305 ?x5611) $x5525 $x4619 $x2827 $x10728 (= (used_gas_s x_0 5) (+ 3 (used_gas_s x_0 4))) $x1176 $x9606 $x3160 $x3974 (= (stack_t x_0 1 ?x63) (_ bv0 256)) (= (used_gas_t x_0 1) (+ 3 ?x1734)) $x6360 $x5310 $x5997 $x6851 (= (stack_t x_0 2 (bvadd (_ bv63 6) ?x2714)) ?x9414) (= (stack_t x_0 2 ?x723) ?x9414) $x104 (= (used_gas_t x_0 2) (+ 3 (used_gas_t x_0 1))) $x1803 $x3425 $x3514 $x4277 $x6377 (= (used_gas_t x_0 3) (+ 3 (used_gas_t x_0 2))) $x5926 $x11901 $x11186 $x9316 $x73 $x8215 $x58 $x6049 $x9385 (not (and $x1839 $x8210 $x3494 $x8867)))))))))))))))))))))))))))))))))))))))))))))))))))))))))))))))))))))))))))))))))))))))))))
 )
(check-sat)
(get-proof)
